48
100
70	1
69	2
68	2
67	1
65	3
64	1
63	1
62	2
61	1
59	3
58	4
57	1
56	2
54	1
52	3
51	2
50	1
48	3
47	1
46	1
45	3
44	1
43	3
42	2
41	2
40	3
39	1
38	2
35	2
34	2
33	3
32	1
31	1
30	1
26	2
25	5
24	3
22	3
21	3
20	2
19	3
18	1
17	2
16	3
15	3
14	4
13	1
10	2
